data;

set vege_oilsTypes := A B;
set nonvege_oilsTypes := C;

set months := STYCZEN LUTY;

param vege_marketPrices: A B :=
		STYCZEN 116 100
		LUTY    100 103;

param nonvege_marketPrices: C :=
		STYCZEN 112
		LUTY    107;

